NAME: random-17-20389
TYPE: TSP
COMMENT: size=17 seed=20389
DIMENSION: 36
EDGE_WEIGHT_TYPE: EUC_2D
NODE_COORD_SECTION
+0 923 254
-0 923 254
+1 56 600
-1 143 415
+2 97 922
-2 267 455
+3 914 850
-3 713 67
+4 655 649
-4 161 854
+5 603 447
-5 625 483
+6 796 216
-6 386 338
+7 217 803
-7 413 934
+8 71 214
-8 561 513
+9 825 927
-9 949 513
+10 871 57
-10 979 784
+11 564 598
-11 626 813
+12 146 514
-12 73 737
+13 403 781
-13 577 692
+14 643 850
-14 731 869
+15 590 32
-15 239 248
+16 537 880
-16 431 409
+17 711 496
-17 346 305
PRECEDENCE_SECTION
+0 -0
+1 -1
+2 -2
+3 -3
+4 -4
+5 -5
+6 -6
+7 -7
+8 -8
+9 -9
+10 -10
+11 -11
+12 -12
+13 -13
+14 -14
+15 -15
+16 -16
+17 -17
EOF
